
  19    0


   0  10 2 3 4 6 7 8 15 16 17 18 
   1   4 14 13 11 10 
   5   2 11 5 
   9   2 12 10 
   4   1 9 
   4   1 10 
   8   1 9 
   8   1 9 
   6   1 19
  10   1 19
   8   1 19
   5   1 19
  10   1 19
   2   1 19
   3   1 19
   5   1 19
   1   1 19
   4   1 19
   0   0 
